qbf_easy_train/easy_4922_SAT.qdimacs
p cnf 46 140
a 25 37 0
e 1 2 3 4 5 6 7 8 9 10 11 12 13 14 15 16 17 18 19 20 21 22 23 24 26 27 28 29 30 31 32 33 34 35 36 38 39 40 41 42 43 44 45 46 0
4 2 0
4 -3 0
-2 3 -4 0
-5 -1 0
-5 -4 0
1 4 5 0
7 6 0
7 -1 0
-6 1 -7 0
8 5 0
8 7 0
-5 -7 -8 0
-11 -6 0
-11 10 0
6 -10 11 0
12 -9 0
12 -11 0
9 11 -12 0
14 -12 0
14 13 0
12 -13 -14 0
-15 -1 0
-15 3 0
1 -3 15 0
16 -2 0
16 -15 0
2 15 -16 0
13 -16 -17 0
-13 16 -17 0
13 16 17 0
-13 -16 17 0
18 -1 0
18 -16 0
1 16 -18 0
19 6 0
19 10 0
-6 -10 -19 0
6 -9 -20 0
-6 9 -20 0
6 9 20 0
-6 -9 20 0
-21 -20 0
-21 -16 0
20 16 21 0
22 19 0
22 -21 0
-19 21 -22 0
-18 -22 -23 0
18 22 -23 0
-18 22 23 0
18 -22 23 0
-17 -23 -24 0
17 23 -24 0
-17 23 24 0
17 -23 24 0
26 -24 0
26 25 0
24 -25 -26 0
-27 14 0
-27 -26 0
-14 26 27 0
28 8 0
28 -27 0
-8 27 -28 0
-29 5 0
-29 -20 0
-5 20 29 0
-30 -7 0
-30 22 0
7 -22 30 0
-31 -19 0
-31 30 0
19 -30 31 0
32 -9 0
32 11 0
9 -11 -32 0
-33 -31 0
-33 32 0
31 -32 33 0
-34 -29 0
-34 33 0
29 -33 34 0
-35 28 0
-35 -34 0
-28 34 35 0
3 -16 -36 0
-3 16 -36 0
3 16 36 0
-3 -16 36 0
37 32 0
37 12 0
-32 -12 -37 0
17 7 -38 0
-17 -7 -38 0
17 -7 38 0
-17 7 38 0
39 -37 0
39 38 0
37 -38 -39 0
36 -39 -40 0
-36 39 -40 0
36 39 40 0
-36 -39 40 0
30 22 -41 0
-30 -22 -41 0
30 -22 41 0
-30 22 41 0
41 18 -42 0
-41 -18 -42 0
41 -18 42 0
-41 18 42 0
-43 1 0
-43 -24 0
-1 24 43 0
42 -43 -44 0
-42 43 -44 0
42 43 44 0
-42 -43 44 0
40 44 -45 0
-40 -44 -45 0
40 -44 45 0
-40 44 45 0
35 -45 -46 0
-35 45 -46 0
35 45 46 0
-35 -45 46 0
-30 14 35 -7 -28 -25 0
-3 -37 44 0
40 -6 35 -36 -38 18 19 0
4 16 32 40 39 0
-12 10 46 26 -36 5 0
8 39 5 -41 28 34 -20 0
-2 -9 -24 -4 -10 0
-10 -39 11 -14 42 0
-4 -31 46 27 26 32 0
38 43 -34 -15 26 0
-23 34 -8 33 -20 46 0
32 -22 31 23 -44 40 11 0
-29 40 -8 24 0
46 0
