sat_easy_train/easy_4922_SAT.dimacs
p cnf 150 519
-3 -1 0
-3 2 0
1 -2 3 0
-4 -3 0
-4 -2 0
3 2 4 0
-7 5 0
-7 6 0
-5 -6 7 0
-4 7 -8 0
4 -7 -8 0
-4 -7 8 0
4 7 8 0
-10 -5 0
-10 9 0
5 -9 10 0
11 12 -13 0
-11 -12 -13 0
11 -12 13 0
-11 12 13 0
14 10 0
14 13 0
-10 -13 -14 0
-16 -14 0
-16 -15 0
14 15 16 0
16 2 -17 0
-16 -2 -17 0
16 -2 17 0
-16 2 17 0
-20 12 0
-20 -19 0
-12 19 20 0
18 -20 -21 0
-18 20 -21 0
18 20 21 0
-18 -20 21 0
-22 -23 -24 0
22 23 -24 0
-22 23 24 0
22 -23 24 0
25 -21 0
25 24 0
21 -24 -25 0
-26 -4 0
-26 -25 0
4 25 26 0
29 -27 0
29 -28 0
27 28 -29 0
-30 -26 0
-30 -29 0
26 29 30 0
12 27 -31 0
-12 -27 -31 0
12 -27 31 0
-12 27 31 0
-32 -7 0
-32 -31 0
7 31 32 0
-33 6 0
-33 32 0
-6 -32 33 0
-33 13 -34 0
33 -13 -34 0
-33 -13 34 0
33 13 34 0
-35 30 0
-35 -34 0
-30 34 35 0
17 -35 -36 0
-17 35 -36 0
17 35 36 0
-17 -35 36 0
37 16 0
37 15 0
-16 -15 -37 0
15 2 -38 0
-15 -2 -38 0
15 -2 38 0
-15 2 38 0
-39 -38 0
-39 -2 0
38 2 39 0
39 9 -40 0
-39 -9 -40 0
39 -9 40 0
-39 9 40 0
-40 26 -41 0
40 -26 -41 0
-40 -26 41 0
40 26 41 0
42 -37 0
42 -41 0
37 41 -42 0
36 -42 -43 0
-36 42 -43 0
36 42 43 0
-36 -42 43 0
-8 43 -44 0
8 -43 -44 0
-8 -43 44 0
8 43 44 0
20 -4 -45 0
-20 4 -45 0
20 4 45 0
-20 -4 45 0
46 -13 0
46 -45 0
13 45 -46 0
5 -47 0
-5 -47 0
-48 -39 0
-48 -47 0
39 47 48 0
-49 -46 0
-49 48 0
46 -48 49 0
-50 -44 0
-50 49 0
44 -49 50 0
51 -15 0
51 -4 0
15 4 -51 0
23 26 -52 0
-23 -26 -52 0
23 -26 52 0
-23 26 52 0
-53 -51 0
-53 -52 0
51 52 53 0
-54 45 0
-54 -11 0
-45 11 54 0
55 -28 0
55 -6 0
28 6 -55 0
56 -54 0
56 -55 0
54 55 -56 0
-57 53 0
-57 -56 0
-53 56 57 0
-6 -2 -58 0
6 2 -58 0
-6 2 58 0
6 -2 58 0
-59 12 0
-59 -58 0
-12 58 59 0
-60 18 0
-60 -15 0
-18 15 60 0
60 -14 -61 0
-60 14 -61 0
60 14 61 0
-60 -14 61 0
62 25 0
62 61 0
-25 -61 -62 0
64 23 0
64 -13 0
-23 13 -64 0
65 63 0
65 -64 0
-63 64 -65 0
-66 -27 0
-66 -65 0
27 65 66 0
67 41 0
67 66 0
-41 -66 -67 0
-62 -67 -68 0
62 67 -68 0
-62 67 68 0
62 -67 68 0
-59 -68 -69 0
59 68 -69 0
-59 68 69 0
59 -68 69 0
70 -19 0
70 47 0
19 -47 -70 0
-71 9 0
-71 -6 0
-9 6 71 0
-72 -71 0
-72 23 0
71 -23 72 0
73 -72 0
73 -4 0
72 4 -73 0
-74 -10 0
-74 21 0
10 -21 74 0
-63 15 -75 0
63 -15 -75 0
-63 -15 75 0
63 15 75 0
-76 75 0
-76 -12 0
-75 12 76 0
74 -76 -77 0
-74 76 -77 0
74 76 77 0
-74 -76 77 0
6 -11 -78 0
-6 11 -78 0
6 11 78 0
-6 -11 78 0
79 -78 0
79 -71 0
78 71 -79 0
79 65 -80 0
-79 -65 -80 0
79 -65 80 0
-79 65 80 0
81 15 0
81 11 0
-15 -11 -81 0
-5 78 -82 0
5 -78 -82 0
-5 -78 82 0
5 78 82 0
27 13 -83 0
-27 -13 -83 0
27 -13 83 0
-27 13 83 0
82 83 -84 0
-82 -83 -84 0
82 -83 84 0
-82 83 84 0
85 -81 0
85 -84 0
81 84 -85 0
-80 85 -86 0
80 -85 -86 0
-80 -85 86 0
80 85 86 0
87 -77 0
87 86 0
77 -86 -87 0
-88 -73 0
-88 87 0
73 -87 88 0
70 -88 -89 0
-70 88 -89 0
70 88 89 0
-70 -88 89 0
-69 -89 -90 0
69 89 -90 0
-69 89 90 0
69 -89 90 0
91 57 0
91 -90 0
-57 90 -91 0
-61 75 -92 0
61 -75 -92 0
-61 -75 92 0
61 75 92 0
93 4 0
93 -92 0
-4 92 -93 0
-94 -15 0
-94 23 0
15 -23 94 0
96 94 0
96 95 0
-94 -95 -96 0
97 22 0
97 -92 0
-22 92 -97 0
98 96 0
98 -97 0
-96 97 -98 0
-93 -98 -99 0
93 98 -99 0
-93 98 99 0
93 -98 99 0
-100 -3 0
-100 -9 0
3 9 100 0
-63 -7 -101 0
63 7 -101 0
-63 7 101 0
63 -7 101 0
102 -100 0
102 -101 0
100 101 -102 0
103 20 0
103 -78 0
-20 78 -103 0
104 102 0
104 103 0
-102 -103 -104 0
58 -11 -105 0
-58 11 -105 0
58 11 105 0
-58 -11 105 0
-45 -7 -106 0
45 7 -106 0
-45 7 106 0
45 -7 106 0
-32 94 -107 0
32 -94 -107 0
-32 -94 107 0
32 94 107 0
-108 106 0
-108 107 0
-106 -107 108 0
105 -108 -109 0
-105 108 -109 0
105 108 109 0
-105 -108 109 0
104 -109 -110 0
-104 109 -110 0
104 109 110 0
-104 -109 110 0
111 -99 0
111 -110 0
99 110 -111 0
-11 65 -112 0
11 -65 -112 0
-11 -65 112 0
11 65 112 0
113 -15 0
113 -63 0
15 63 -113 0
28 -113 -114 0
-28 113 -114 0
28 113 114 0
-28 -113 114 0
-115 45 0
-115 19 0
-45 -19 115 0
-116 115 0
-116 -24 0
-115 24 116 0
-117 2 0
-117 -116 0
-2 116 117 0
-118 114 0
-118 -117 0
-114 117 118 0
119 -112 0
119 -118 0
112 118 -119 0
-120 -111 0
-120 -119 0
111 119 120 0
121 91 0
121 -120 0
-91 120 -121 0
122 -10 0
122 79 0
10 -79 -122 0
-4 -79 -123 0
4 79 -123 0
-4 79 123 0
4 -79 123 0
124 -16 0
124 -123 0
16 123 -124 0
125 15 0
125 -124 0
-15 124 -125 0
-122 125 -126 0
122 -125 -126 0
-122 -125 126 0
122 125 126 0
107 -19 -127 0
-107 19 -127 0
107 19 127 0
-107 -19 127 0
128 30 0
128 -101 0
-30 101 -128 0
-129 -127 0
-129 128 0
127 -128 129 0
23 15 -130 0
-23 -15 -130 0
23 -15 130 0
-23 15 130 0
131 4 0
131 130 0
-4 -130 -131 0
132 -131 0
132 45 0
131 -45 -132 0
133 129 0
133 -132 0
-129 132 -133 0
-24 9 -134 0
24 -9 -134 0
-24 -9 134 0
24 9 134 0
-135 79 0
-135 -14 0
-79 14 135 0
-10 45 -136 0
10 -45 -136 0
-10 -45 136 0
10 45 136 0
-137 -38 0
-137 -24 0
38 24 137 0
-138 7 0
-138 137 0
-7 -137 138 0
-139 136 0
-139 -138 0
-136 138 139 0
-140 135 0
-140 139 0
-135 -139 140 0
-141 134 0
-141 -140 0
-134 140 141 0
142 133 0
142 -141 0
-133 141 -142 0
-143 18 0
-143 115 0
-18 -115 143 0
27 -64 -144 0
-27 64 -144 0
27 64 144 0
-27 -64 144 0
-145 -144 0
-145 -20 0
144 20 145 0
143 145 -146 0
-143 -145 -146 0
143 -145 146 0
-143 145 146 0
147 142 0
147 -146 0
-142 146 -147 0
148 126 0
148 -147 0
-126 147 -148 0
121 148 -149 0
-121 -148 -149 0
121 -148 149 0
-121 148 149 0
-50 149 -150 0
50 -149 -150 0
-50 -149 150 0
50 149 150 0
20 107 79 -25 -70 0
133 4 -60 -65 -6 0
-119 113 -50 -105 106 84 0
-2 138 98 -93 -135 0
-15 -83 4 38 0
105 84 -128 -116 -144 88 0
127 70 78 0
19 78 -110 -120 0
-86 -102 -83 2 0
-83 -56 -78 37 0
-29 12 0
94 -52 95 24 -13 0
-4 20 31 0
-36 107 -40 -89 -81 0
-73 -19 94 0
28 150 79 40 0
144 -62 33 139 -91 104 0
-42 76 -3 -91 127 0
141 -90 -138 -19 -143 0
89 113 114 0
16 -118 18 0
-144 93 117 129 -15 0
-26 118 88 -131 0
-60 134 0
-54 53 71 -78 -5 0
111 108 0
62 -125 148 0
142 84 35 -68 -61 0
125 -64 149 0
-67 101 130 45 -139 0
-3 -42 70 0
-118 111 41 -60 98 -104 0
116 -34 103 -127 0
51 92 0
107 -85 0
111 56 0
-109 80 -28 0
127 -85 -104 -11 32 102 0
143 3 0
-148 80 0
-72 -107 41 -93 -129 0
39 -58 0
38 -71 -48 0
-94 -148 3 -117 112 -147 0
78 54 -144 62 -125 30 0
66 -64 118 -101 19 0
132 34 -133 143 0
54 -41 -121 -51 144 0
120 60 64 0
-121 -60 66 -88 -14 0
-113 95 124 76 52 96 0
-140 -122 25 0
-130 -1 0
-32 133 -23 33 0
-18 48 -87 29 117 0
-37 -21 0
33 16 -96 -63 30 0
-54 -127 37 -18 -12 0
60 94 -34 0
28 -35 0
-98 100 127 -63 -128 -40 0
11 44 74 -32 0
119 60 46 -72 0
105 4 62 109 0
-7 -14 24 -133 0
-1 -20 0
48 -72 12 -112 28 -87 0
129 66 -141 133 -113 0
150 0
